
;this file is automatically generated: Wed Apr 21 11:03:36 CST 2021

;declarations generated

(declare-fun type_7bc1e65d_da89_4b9c_a800_913e5566cdc9_Class13 ( Int) Bool)
(declare-fun type_7bc1e65d_da89_4b9c_a800_913e5566cdc9_Class12 ( Int) Bool)
(declare-fun type_7bc1e65d_da89_4b9c_a800_913e5566cdc9_Class15 ( Int) Bool)
(declare-fun type_7bc1e65d_da89_4b9c_a800_913e5566cdc9_Class14 ( Int) Bool)
(declare-fun type_7bc1e65d_da89_4b9c_a800_913e5566cdc9_Class11 ( Int) Bool)
(declare-fun type_7bc1e65d_da89_4b9c_a800_913e5566cdc9_Class10 ( Int) Bool)
(declare-fun type_7bc1e65d_da89_4b9c_a800_913e5566cdc9_Class17 ( Int) Bool)
(declare-fun type_7bc1e65d_da89_4b9c_a800_913e5566cdc9_Class16 ( Int) Bool)
(declare-fun type_7bc1e65d_da89_4b9c_a800_913e5566cdc9_Class19 ( Int) Bool)
(declare-fun type_7bc1e65d_da89_4b9c_a800_913e5566cdc9_Class18 ( Int) Bool)
(declare-fun oclExcludes ( Int Int) Bool)
(declare-fun type_7bc1e65d_da89_4b9c_a800_913e5566cdc9_Class24 ( Int) Bool)
(declare-fun type_7bc1e65d_da89_4b9c_a800_913e5566cdc9_Class23 ( Int) Bool)
(declare-fun type_7bc1e65d_da89_4b9c_a800_913e5566cdc9_Class26 ( Int) Bool)
(declare-fun type_7bc1e65d_da89_4b9c_a800_913e5566cdc9_Class25 ( Int) Bool)
(declare-fun type_7bc1e65d_da89_4b9c_a800_913e5566cdc9_Class20 ( Int) Bool)
(declare-fun type_7bc1e65d_da89_4b9c_a800_913e5566cdc9_Class22 ( Int) Bool)
(declare-fun type_7bc1e65d_da89_4b9c_a800_913e5566cdc9_Class21 ( Int) Bool)
(declare-fun type_7bc1e65d_da89_4b9c_a800_913e5566cdc9_Class49 ( Int) Bool)
(declare-fun type_7bc1e65d_da89_4b9c_a800_913e5566cdc9_Class51 ( Int) Bool)
(declare-fun type_7bc1e65d_da89_4b9c_a800_913e5566cdc9_Class50 ( Int) Bool)
(declare-fun type_7bc1e65d_da89_4b9c_a800_913e5566cdc9_Class56 ( Int) Bool)
(declare-fun type_7bc1e65d_da89_4b9c_a800_913e5566cdc9_Class53 ( Int) Bool)
(declare-fun type_7bc1e65d_da89_4b9c_a800_913e5566cdc9_Class52 ( Int) Bool)
(declare-fun type_7bc1e65d_da89_4b9c_a800_913e5566cdc9_Class55 ( Int) Bool)
(declare-fun type_7bc1e65d_da89_4b9c_a800_913e5566cdc9_Class54 ( Int) Bool)
(declare-fun Cardinality ( Int) Int)
(declare-fun type_7bc1e65d_da89_4b9c_a800_913e5566cdc9_Class28 ( Int) Bool)
(declare-fun type_7bc1e65d_da89_4b9c_a800_913e5566cdc9_Class27 ( Int) Bool)
(declare-fun type_7bc1e65d_da89_4b9c_a800_913e5566cdc9_Class29 ( Int) Bool)
(declare-fun type_7bc1e65d_da89_4b9c_a800_913e5566cdc9_Class35 ( Int) Bool)
(declare-fun type_7bc1e65d_da89_4b9c_a800_913e5566cdc9_Class34 ( Int) Bool)
(declare-fun type_7bc1e65d_da89_4b9c_a800_913e5566cdc9_Class37 ( Int) Bool)
(declare-fun type_7bc1e65d_da89_4b9c_a800_913e5566cdc9_Class36 ( Int) Bool)
(declare-fun type_7bc1e65d_da89_4b9c_a800_913e5566cdc9_Class31 ( Int) Bool)
(declare-fun type_7bc1e65d_da89_4b9c_a800_913e5566cdc9_Class30 ( Int) Bool)
(declare-fun type_7bc1e65d_da89_4b9c_a800_913e5566cdc9_Class33 ( Int) Bool)
(declare-fun type_7bc1e65d_da89_4b9c_a800_913e5566cdc9_Class32 ( Int) Bool)
(declare-fun type_7bc1e65d_da89_4b9c_a800_913e5566cdc9_Class39 ( Int) Bool)
(declare-fun type_7bc1e65d_da89_4b9c_a800_913e5566cdc9_Class38 ( Int) Bool)
(declare-fun type_7bc1e65d_da89_4b9c_a800_913e5566cdc9_Class40 ( Int) Bool)
(declare-fun type_7bc1e65d_da89_4b9c_a800_913e5566cdc9_Class46 ( Int) Bool)
(declare-fun type_7bc1e65d_da89_4b9c_a800_913e5566cdc9_Class45 ( Int) Bool)
(declare-fun type_7bc1e65d_da89_4b9c_a800_913e5566cdc9_Class48 ( Int) Bool)
(declare-fun type_7bc1e65d_da89_4b9c_a800_913e5566cdc9_Class47 ( Int) Bool)
(declare-fun type_7bc1e65d_da89_4b9c_a800_913e5566cdc9_Class42 ( Int) Bool)
(declare-fun type_7bc1e65d_da89_4b9c_a800_913e5566cdc9_Class41 ( Int) Bool)
(declare-fun type_7bc1e65d_da89_4b9c_a800_913e5566cdc9_Class44 ( Int) Bool)
(declare-fun type_7bc1e65d_da89_4b9c_a800_913e5566cdc9_Class43 ( Int) Bool)
(declare-fun oclSelect ( Int Bool) Int)
(declare-fun obj_a00bd7fb_8031_4078_9550_dcad1180f81b ( Int) Int)
(declare-fun type_7bc1e65d_da89_4b9c_a800_913e5566cdc9_Class9 ( Int) Bool)
(declare-fun type_7bc1e65d_da89_4b9c_a800_913e5566cdc9_Class8 ( Int) Bool)
(declare-fun type_7bc1e65d_da89_4b9c_a800_913e5566cdc9_Class7 ( Int) Bool)
(declare-fun type_7bc1e65d_da89_4b9c_a800_913e5566cdc9_Class6 ( Int) Bool)
(declare-fun type_7bc1e65d_da89_4b9c_a800_913e5566cdc9_Class5 ( Int) Bool)
(declare-fun type_7bc1e65d_da89_4b9c_a800_913e5566cdc9_Class4 ( Int) Bool)
(declare-fun type_7bc1e65d_da89_4b9c_a800_913e5566cdc9_Class3 ( Int) Bool)
(declare-fun type_7bc1e65d_da89_4b9c_a800_913e5566cdc9_Class2 ( Int) Bool)
(declare-fun type_7bc1e65d_da89_4b9c_a800_913e5566cdc9_Class1 ( Int) Bool)
(declare-fun type_7bc1e65d_da89_4b9c_a800_913e5566cdc9_Class0 ( Int) Bool)
(declare-fun Enum0 ( Int) Int)
(declare-fun Enum1 ( Int) Int)
(declare-fun Enum2 ( Int) Int)
(declare-fun container_ ( Int) Int)
(declare-fun class7_Class7BoolAttr0 ( Int) Bool)
(declare-fun class7_Class7BoolAttr1 ( Int) Bool)
(declare-fun oclIncludes ( Int Int) Bool)
(declare-fun ObjAt ( Int Int) Int)

;formula(s) generated
(assert (! (forall ((c1 Int)(c2 Int)) (=> (and ( type_7bc1e65d_da89_4b9c_a800_913e5566cdc9_Class7 c1 )  ( type_7bc1e65d_da89_4b9c_a800_913e5566cdc9_Class7 c2 ) ) (or ( class7_Class7BoolAttr0 ( obj_a00bd7fb_8031_4078_9550_dcad1180f81b c1 )  )  ( class7_Class7BoolAttr1 ( obj_a00bd7fb_8031_4078_9550_dcad1180f81b c2 )  ) ))):named l0))
(assert (! (exists ((o Int)) (and (and (and (and (and (and ( type_7bc1e65d_da89_4b9c_a800_913e5566cdc9_Class0 ( obj_a00bd7fb_8031_4078_9550_dcad1180f81b o )  )  ( type_7bc1e65d_da89_4b9c_a800_913e5566cdc9_Class44 ( obj_a00bd7fb_8031_4078_9550_dcad1180f81b o )  ) ) ( type_7bc1e65d_da89_4b9c_a800_913e5566cdc9_Class36 ( obj_a00bd7fb_8031_4078_9550_dcad1180f81b o )  ) ) ( type_7bc1e65d_da89_4b9c_a800_913e5566cdc9_Class35 ( obj_a00bd7fb_8031_4078_9550_dcad1180f81b o )  ) ) ( type_7bc1e65d_da89_4b9c_a800_913e5566cdc9_Class27 ( obj_a00bd7fb_8031_4078_9550_dcad1180f81b o )  ) ) ( type_7bc1e65d_da89_4b9c_a800_913e5566cdc9_Class15 ( obj_a00bd7fb_8031_4078_9550_dcad1180f81b o )  ) ) ( type_7bc1e65d_da89_4b9c_a800_913e5566cdc9_Class28 ( obj_a00bd7fb_8031_4078_9550_dcad1180f81b o )  ) )):named c0))
(assert (! (exists ((o Int)) ( type_7bc1e65d_da89_4b9c_a800_913e5566cdc9_Class1 ( obj_a00bd7fb_8031_4078_9550_dcad1180f81b o )  ) ):named c1))
(assert (! (exists ((o Int)) (and (and ( type_7bc1e65d_da89_4b9c_a800_913e5566cdc9_Class10 ( obj_a00bd7fb_8031_4078_9550_dcad1180f81b o )  )  ( type_7bc1e65d_da89_4b9c_a800_913e5566cdc9_Class15 ( obj_a00bd7fb_8031_4078_9550_dcad1180f81b o )  ) ) ( type_7bc1e65d_da89_4b9c_a800_913e5566cdc9_Class21 ( obj_a00bd7fb_8031_4078_9550_dcad1180f81b o )  ) )):named c2))
(assert (! (exists ((o Int)) ( type_7bc1e65d_da89_4b9c_a800_913e5566cdc9_Class11 ( obj_a00bd7fb_8031_4078_9550_dcad1180f81b o )  ) ):named c3))
(assert (! (exists ((o Int)) (and (and ( type_7bc1e65d_da89_4b9c_a800_913e5566cdc9_Class12 ( obj_a00bd7fb_8031_4078_9550_dcad1180f81b o )  )  ( type_7bc1e65d_da89_4b9c_a800_913e5566cdc9_Class33 ( obj_a00bd7fb_8031_4078_9550_dcad1180f81b o )  ) ) ( type_7bc1e65d_da89_4b9c_a800_913e5566cdc9_Class15 ( obj_a00bd7fb_8031_4078_9550_dcad1180f81b o )  ) )):named c4))
(assert (! (exists ((o Int)) ( type_7bc1e65d_da89_4b9c_a800_913e5566cdc9_Class13 ( obj_a00bd7fb_8031_4078_9550_dcad1180f81b o )  ) ):named c5))
(assert (! (exists ((o Int)) (and (and (and (and (and (and ( type_7bc1e65d_da89_4b9c_a800_913e5566cdc9_Class14 ( obj_a00bd7fb_8031_4078_9550_dcad1180f81b o )  )  ( type_7bc1e65d_da89_4b9c_a800_913e5566cdc9_Class36 ( obj_a00bd7fb_8031_4078_9550_dcad1180f81b o )  ) ) ( type_7bc1e65d_da89_4b9c_a800_913e5566cdc9_Class35 ( obj_a00bd7fb_8031_4078_9550_dcad1180f81b o )  ) ) ( type_7bc1e65d_da89_4b9c_a800_913e5566cdc9_Class27 ( obj_a00bd7fb_8031_4078_9550_dcad1180f81b o )  ) ) ( type_7bc1e65d_da89_4b9c_a800_913e5566cdc9_Class9 ( obj_a00bd7fb_8031_4078_9550_dcad1180f81b o )  ) ) ( type_7bc1e65d_da89_4b9c_a800_913e5566cdc9_Class15 ( obj_a00bd7fb_8031_4078_9550_dcad1180f81b o )  ) ) ( type_7bc1e65d_da89_4b9c_a800_913e5566cdc9_Class28 ( obj_a00bd7fb_8031_4078_9550_dcad1180f81b o )  ) )):named c6))
(assert (! (exists ((o Int)) ( type_7bc1e65d_da89_4b9c_a800_913e5566cdc9_Class15 ( obj_a00bd7fb_8031_4078_9550_dcad1180f81b o )  ) ):named c7))
(assert (! (exists ((o Int)) ( type_7bc1e65d_da89_4b9c_a800_913e5566cdc9_Class16 ( obj_a00bd7fb_8031_4078_9550_dcad1180f81b o )  ) ):named c8))
(assert (! (exists ((o Int)) (and (and (and (and (and (and ( type_7bc1e65d_da89_4b9c_a800_913e5566cdc9_Class17 ( obj_a00bd7fb_8031_4078_9550_dcad1180f81b o )  )  ( type_7bc1e65d_da89_4b9c_a800_913e5566cdc9_Class44 ( obj_a00bd7fb_8031_4078_9550_dcad1180f81b o )  ) ) ( type_7bc1e65d_da89_4b9c_a800_913e5566cdc9_Class36 ( obj_a00bd7fb_8031_4078_9550_dcad1180f81b o )  ) ) ( type_7bc1e65d_da89_4b9c_a800_913e5566cdc9_Class35 ( obj_a00bd7fb_8031_4078_9550_dcad1180f81b o )  ) ) ( type_7bc1e65d_da89_4b9c_a800_913e5566cdc9_Class27 ( obj_a00bd7fb_8031_4078_9550_dcad1180f81b o )  ) ) ( type_7bc1e65d_da89_4b9c_a800_913e5566cdc9_Class15 ( obj_a00bd7fb_8031_4078_9550_dcad1180f81b o )  ) ) ( type_7bc1e65d_da89_4b9c_a800_913e5566cdc9_Class28 ( obj_a00bd7fb_8031_4078_9550_dcad1180f81b o )  ) )):named c9))
(assert (! (exists ((o Int)) ( type_7bc1e65d_da89_4b9c_a800_913e5566cdc9_Class18 ( obj_a00bd7fb_8031_4078_9550_dcad1180f81b o )  ) ):named c10))
(assert (! (exists ((o Int)) (and (and (and (and (and (and ( type_7bc1e65d_da89_4b9c_a800_913e5566cdc9_Class19 ( obj_a00bd7fb_8031_4078_9550_dcad1180f81b o )  )  ( type_7bc1e65d_da89_4b9c_a800_913e5566cdc9_Class36 ( obj_a00bd7fb_8031_4078_9550_dcad1180f81b o )  ) ) ( type_7bc1e65d_da89_4b9c_a800_913e5566cdc9_Class35 ( obj_a00bd7fb_8031_4078_9550_dcad1180f81b o )  ) ) ( type_7bc1e65d_da89_4b9c_a800_913e5566cdc9_Class27 ( obj_a00bd7fb_8031_4078_9550_dcad1180f81b o )  ) ) ( type_7bc1e65d_da89_4b9c_a800_913e5566cdc9_Class9 ( obj_a00bd7fb_8031_4078_9550_dcad1180f81b o )  ) ) ( type_7bc1e65d_da89_4b9c_a800_913e5566cdc9_Class15 ( obj_a00bd7fb_8031_4078_9550_dcad1180f81b o )  ) ) ( type_7bc1e65d_da89_4b9c_a800_913e5566cdc9_Class28 ( obj_a00bd7fb_8031_4078_9550_dcad1180f81b o )  ) )):named c11))
(assert (! (exists ((o Int)) (and (and (and (and (and (and ( type_7bc1e65d_da89_4b9c_a800_913e5566cdc9_Class2 ( obj_a00bd7fb_8031_4078_9550_dcad1180f81b o )  )  ( type_7bc1e65d_da89_4b9c_a800_913e5566cdc9_Class36 ( obj_a00bd7fb_8031_4078_9550_dcad1180f81b o )  ) ) ( type_7bc1e65d_da89_4b9c_a800_913e5566cdc9_Class35 ( obj_a00bd7fb_8031_4078_9550_dcad1180f81b o )  ) ) ( type_7bc1e65d_da89_4b9c_a800_913e5566cdc9_Class27 ( obj_a00bd7fb_8031_4078_9550_dcad1180f81b o )  ) ) ( type_7bc1e65d_da89_4b9c_a800_913e5566cdc9_Class15 ( obj_a00bd7fb_8031_4078_9550_dcad1180f81b o )  ) ) ( type_7bc1e65d_da89_4b9c_a800_913e5566cdc9_Class28 ( obj_a00bd7fb_8031_4078_9550_dcad1180f81b o )  ) ) ( type_7bc1e65d_da89_4b9c_a800_913e5566cdc9_Class54 ( obj_a00bd7fb_8031_4078_9550_dcad1180f81b o )  ) )):named c12))
(assert (! (exists ((o Int)) (and ( type_7bc1e65d_da89_4b9c_a800_913e5566cdc9_Class20 ( obj_a00bd7fb_8031_4078_9550_dcad1180f81b o )  )  ( type_7bc1e65d_da89_4b9c_a800_913e5566cdc9_Class15 ( obj_a00bd7fb_8031_4078_9550_dcad1180f81b o )  ) )):named c13))
(assert (! (exists ((o Int)) (and ( type_7bc1e65d_da89_4b9c_a800_913e5566cdc9_Class21 ( obj_a00bd7fb_8031_4078_9550_dcad1180f81b o )  )  ( type_7bc1e65d_da89_4b9c_a800_913e5566cdc9_Class15 ( obj_a00bd7fb_8031_4078_9550_dcad1180f81b o )  ) )):named c14))
(assert (! (exists ((o Int)) (and (and (and ( type_7bc1e65d_da89_4b9c_a800_913e5566cdc9_Class22 ( obj_a00bd7fb_8031_4078_9550_dcad1180f81b o )  )  ( type_7bc1e65d_da89_4b9c_a800_913e5566cdc9_Class15 ( obj_a00bd7fb_8031_4078_9550_dcad1180f81b o )  ) ) ( type_7bc1e65d_da89_4b9c_a800_913e5566cdc9_Class48 ( obj_a00bd7fb_8031_4078_9550_dcad1180f81b o )  ) ) ( type_7bc1e65d_da89_4b9c_a800_913e5566cdc9_Class43 ( obj_a00bd7fb_8031_4078_9550_dcad1180f81b o )  ) )):named c15))
(assert (! (exists ((o Int)) ( type_7bc1e65d_da89_4b9c_a800_913e5566cdc9_Class23 ( obj_a00bd7fb_8031_4078_9550_dcad1180f81b o )  ) ):named c16))
(assert (! (exists ((o Int)) ( type_7bc1e65d_da89_4b9c_a800_913e5566cdc9_Class24 ( obj_a00bd7fb_8031_4078_9550_dcad1180f81b o )  ) ):named c17))
(assert (! (exists ((o Int)) (and (and (and ( type_7bc1e65d_da89_4b9c_a800_913e5566cdc9_Class25 ( obj_a00bd7fb_8031_4078_9550_dcad1180f81b o )  )  ( type_7bc1e65d_da89_4b9c_a800_913e5566cdc9_Class12 ( obj_a00bd7fb_8031_4078_9550_dcad1180f81b o )  ) ) ( type_7bc1e65d_da89_4b9c_a800_913e5566cdc9_Class33 ( obj_a00bd7fb_8031_4078_9550_dcad1180f81b o )  ) ) ( type_7bc1e65d_da89_4b9c_a800_913e5566cdc9_Class15 ( obj_a00bd7fb_8031_4078_9550_dcad1180f81b o )  ) )):named c18))
(assert (! (exists ((o Int)) ( type_7bc1e65d_da89_4b9c_a800_913e5566cdc9_Class26 ( obj_a00bd7fb_8031_4078_9550_dcad1180f81b o )  ) ):named c19))
(assert (! (exists ((o Int)) (and ( type_7bc1e65d_da89_4b9c_a800_913e5566cdc9_Class27 ( obj_a00bd7fb_8031_4078_9550_dcad1180f81b o )  )  ( type_7bc1e65d_da89_4b9c_a800_913e5566cdc9_Class15 ( obj_a00bd7fb_8031_4078_9550_dcad1180f81b o )  ) )):named c20))
(assert (! (exists ((o Int)) (and (and ( type_7bc1e65d_da89_4b9c_a800_913e5566cdc9_Class28 ( obj_a00bd7fb_8031_4078_9550_dcad1180f81b o )  )  ( type_7bc1e65d_da89_4b9c_a800_913e5566cdc9_Class27 ( obj_a00bd7fb_8031_4078_9550_dcad1180f81b o )  ) ) ( type_7bc1e65d_da89_4b9c_a800_913e5566cdc9_Class15 ( obj_a00bd7fb_8031_4078_9550_dcad1180f81b o )  ) )):named c21))
(assert (! (exists ((o Int)) (and (and (and (and (and ( type_7bc1e65d_da89_4b9c_a800_913e5566cdc9_Class29 ( obj_a00bd7fb_8031_4078_9550_dcad1180f81b o )  )  ( type_7bc1e65d_da89_4b9c_a800_913e5566cdc9_Class36 ( obj_a00bd7fb_8031_4078_9550_dcad1180f81b o )  ) ) ( type_7bc1e65d_da89_4b9c_a800_913e5566cdc9_Class35 ( obj_a00bd7fb_8031_4078_9550_dcad1180f81b o )  ) ) ( type_7bc1e65d_da89_4b9c_a800_913e5566cdc9_Class27 ( obj_a00bd7fb_8031_4078_9550_dcad1180f81b o )  ) ) ( type_7bc1e65d_da89_4b9c_a800_913e5566cdc9_Class15 ( obj_a00bd7fb_8031_4078_9550_dcad1180f81b o )  ) ) ( type_7bc1e65d_da89_4b9c_a800_913e5566cdc9_Class28 ( obj_a00bd7fb_8031_4078_9550_dcad1180f81b o )  ) )):named c22))
(assert (! (exists ((o Int)) ( type_7bc1e65d_da89_4b9c_a800_913e5566cdc9_Class3 ( obj_a00bd7fb_8031_4078_9550_dcad1180f81b o )  ) ):named c23))
(assert (! (exists ((o Int)) (and (and ( type_7bc1e65d_da89_4b9c_a800_913e5566cdc9_Class30 ( obj_a00bd7fb_8031_4078_9550_dcad1180f81b o )  )  ( type_7bc1e65d_da89_4b9c_a800_913e5566cdc9_Class33 ( obj_a00bd7fb_8031_4078_9550_dcad1180f81b o )  ) ) ( type_7bc1e65d_da89_4b9c_a800_913e5566cdc9_Class15 ( obj_a00bd7fb_8031_4078_9550_dcad1180f81b o )  ) )):named c24))
(assert (! (exists ((o Int)) (and (and (and (and (and (and ( type_7bc1e65d_da89_4b9c_a800_913e5566cdc9_Class31 ( obj_a00bd7fb_8031_4078_9550_dcad1180f81b o )  )  ( type_7bc1e65d_da89_4b9c_a800_913e5566cdc9_Class36 ( obj_a00bd7fb_8031_4078_9550_dcad1180f81b o )  ) ) ( type_7bc1e65d_da89_4b9c_a800_913e5566cdc9_Class35 ( obj_a00bd7fb_8031_4078_9550_dcad1180f81b o )  ) ) ( type_7bc1e65d_da89_4b9c_a800_913e5566cdc9_Class27 ( obj_a00bd7fb_8031_4078_9550_dcad1180f81b o )  ) ) ( type_7bc1e65d_da89_4b9c_a800_913e5566cdc9_Class15 ( obj_a00bd7fb_8031_4078_9550_dcad1180f81b o )  ) ) ( type_7bc1e65d_da89_4b9c_a800_913e5566cdc9_Class28 ( obj_a00bd7fb_8031_4078_9550_dcad1180f81b o )  ) ) ( type_7bc1e65d_da89_4b9c_a800_913e5566cdc9_Class54 ( obj_a00bd7fb_8031_4078_9550_dcad1180f81b o )  ) )):named c25))
(assert (! (exists ((o Int)) ( type_7bc1e65d_da89_4b9c_a800_913e5566cdc9_Class32 ( obj_a00bd7fb_8031_4078_9550_dcad1180f81b o )  ) ):named c26))
(assert (! (exists ((o Int)) (and ( type_7bc1e65d_da89_4b9c_a800_913e5566cdc9_Class33 ( obj_a00bd7fb_8031_4078_9550_dcad1180f81b o )  )  ( type_7bc1e65d_da89_4b9c_a800_913e5566cdc9_Class15 ( obj_a00bd7fb_8031_4078_9550_dcad1180f81b o )  ) )):named c27))
(assert (! (exists ((o Int)) ( type_7bc1e65d_da89_4b9c_a800_913e5566cdc9_Class34 ( obj_a00bd7fb_8031_4078_9550_dcad1180f81b o )  ) ):named c28))
(assert (! (exists ((o Int)) (and (and (and (and ( type_7bc1e65d_da89_4b9c_a800_913e5566cdc9_Class35 ( obj_a00bd7fb_8031_4078_9550_dcad1180f81b o )  )  ( type_7bc1e65d_da89_4b9c_a800_913e5566cdc9_Class36 ( obj_a00bd7fb_8031_4078_9550_dcad1180f81b o )  ) ) ( type_7bc1e65d_da89_4b9c_a800_913e5566cdc9_Class27 ( obj_a00bd7fb_8031_4078_9550_dcad1180f81b o )  ) ) ( type_7bc1e65d_da89_4b9c_a800_913e5566cdc9_Class15 ( obj_a00bd7fb_8031_4078_9550_dcad1180f81b o )  ) ) ( type_7bc1e65d_da89_4b9c_a800_913e5566cdc9_Class28 ( obj_a00bd7fb_8031_4078_9550_dcad1180f81b o )  ) )):named c29))
(assert (! (exists ((o Int)) (and (and (and ( type_7bc1e65d_da89_4b9c_a800_913e5566cdc9_Class36 ( obj_a00bd7fb_8031_4078_9550_dcad1180f81b o )  )  ( type_7bc1e65d_da89_4b9c_a800_913e5566cdc9_Class27 ( obj_a00bd7fb_8031_4078_9550_dcad1180f81b o )  ) ) ( type_7bc1e65d_da89_4b9c_a800_913e5566cdc9_Class15 ( obj_a00bd7fb_8031_4078_9550_dcad1180f81b o )  ) ) ( type_7bc1e65d_da89_4b9c_a800_913e5566cdc9_Class28 ( obj_a00bd7fb_8031_4078_9550_dcad1180f81b o )  ) )):named c30))
(assert (! (exists ((o Int)) (and ( type_7bc1e65d_da89_4b9c_a800_913e5566cdc9_Class37 ( obj_a00bd7fb_8031_4078_9550_dcad1180f81b o )  )  ( type_7bc1e65d_da89_4b9c_a800_913e5566cdc9_Class15 ( obj_a00bd7fb_8031_4078_9550_dcad1180f81b o )  ) )):named c31))
(assert (! (exists ((o Int)) (and (and (and (and ( type_7bc1e65d_da89_4b9c_a800_913e5566cdc9_Class38 ( obj_a00bd7fb_8031_4078_9550_dcad1180f81b o )  )  ( type_7bc1e65d_da89_4b9c_a800_913e5566cdc9_Class22 ( obj_a00bd7fb_8031_4078_9550_dcad1180f81b o )  ) ) ( type_7bc1e65d_da89_4b9c_a800_913e5566cdc9_Class15 ( obj_a00bd7fb_8031_4078_9550_dcad1180f81b o )  ) ) ( type_7bc1e65d_da89_4b9c_a800_913e5566cdc9_Class48 ( obj_a00bd7fb_8031_4078_9550_dcad1180f81b o )  ) ) ( type_7bc1e65d_da89_4b9c_a800_913e5566cdc9_Class43 ( obj_a00bd7fb_8031_4078_9550_dcad1180f81b o )  ) )):named c32))
(assert (! (exists ((o Int)) ( type_7bc1e65d_da89_4b9c_a800_913e5566cdc9_Class39 ( obj_a00bd7fb_8031_4078_9550_dcad1180f81b o )  ) ):named c33))
(assert (! (exists ((o Int)) (and (and (and (and (and (and ( type_7bc1e65d_da89_4b9c_a800_913e5566cdc9_Class4 ( obj_a00bd7fb_8031_4078_9550_dcad1180f81b o )  )  ( type_7bc1e65d_da89_4b9c_a800_913e5566cdc9_Class44 ( obj_a00bd7fb_8031_4078_9550_dcad1180f81b o )  ) ) ( type_7bc1e65d_da89_4b9c_a800_913e5566cdc9_Class36 ( obj_a00bd7fb_8031_4078_9550_dcad1180f81b o )  ) ) ( type_7bc1e65d_da89_4b9c_a800_913e5566cdc9_Class35 ( obj_a00bd7fb_8031_4078_9550_dcad1180f81b o )  ) ) ( type_7bc1e65d_da89_4b9c_a800_913e5566cdc9_Class27 ( obj_a00bd7fb_8031_4078_9550_dcad1180f81b o )  ) ) ( type_7bc1e65d_da89_4b9c_a800_913e5566cdc9_Class15 ( obj_a00bd7fb_8031_4078_9550_dcad1180f81b o )  ) ) ( type_7bc1e65d_da89_4b9c_a800_913e5566cdc9_Class28 ( obj_a00bd7fb_8031_4078_9550_dcad1180f81b o )  ) )):named c34))
(assert (! (exists ((o Int)) ( type_7bc1e65d_da89_4b9c_a800_913e5566cdc9_Class40 ( obj_a00bd7fb_8031_4078_9550_dcad1180f81b o )  ) ):named c35))
(assert (! (exists ((o Int)) ( type_7bc1e65d_da89_4b9c_a800_913e5566cdc9_Class41 ( obj_a00bd7fb_8031_4078_9550_dcad1180f81b o )  ) ):named c36))
(assert (! (exists ((o Int)) ( type_7bc1e65d_da89_4b9c_a800_913e5566cdc9_Class42 ( obj_a00bd7fb_8031_4078_9550_dcad1180f81b o )  ) ):named c37))
(assert (! (exists ((o Int)) (and ( type_7bc1e65d_da89_4b9c_a800_913e5566cdc9_Class43 ( obj_a00bd7fb_8031_4078_9550_dcad1180f81b o )  )  ( type_7bc1e65d_da89_4b9c_a800_913e5566cdc9_Class15 ( obj_a00bd7fb_8031_4078_9550_dcad1180f81b o )  ) )):named c38))
(assert (! (exists ((o Int)) (and (and (and (and (and ( type_7bc1e65d_da89_4b9c_a800_913e5566cdc9_Class44 ( obj_a00bd7fb_8031_4078_9550_dcad1180f81b o )  )  ( type_7bc1e65d_da89_4b9c_a800_913e5566cdc9_Class36 ( obj_a00bd7fb_8031_4078_9550_dcad1180f81b o )  ) ) ( type_7bc1e65d_da89_4b9c_a800_913e5566cdc9_Class35 ( obj_a00bd7fb_8031_4078_9550_dcad1180f81b o )  ) ) ( type_7bc1e65d_da89_4b9c_a800_913e5566cdc9_Class27 ( obj_a00bd7fb_8031_4078_9550_dcad1180f81b o )  ) ) ( type_7bc1e65d_da89_4b9c_a800_913e5566cdc9_Class15 ( obj_a00bd7fb_8031_4078_9550_dcad1180f81b o )  ) ) ( type_7bc1e65d_da89_4b9c_a800_913e5566cdc9_Class28 ( obj_a00bd7fb_8031_4078_9550_dcad1180f81b o )  ) )):named c39))
(assert (! (exists ((o Int)) (and (and (and (and (and (and ( type_7bc1e65d_da89_4b9c_a800_913e5566cdc9_Class45 ( obj_a00bd7fb_8031_4078_9550_dcad1180f81b o )  )  ( type_7bc1e65d_da89_4b9c_a800_913e5566cdc9_Class36 ( obj_a00bd7fb_8031_4078_9550_dcad1180f81b o )  ) ) ( type_7bc1e65d_da89_4b9c_a800_913e5566cdc9_Class35 ( obj_a00bd7fb_8031_4078_9550_dcad1180f81b o )  ) ) ( type_7bc1e65d_da89_4b9c_a800_913e5566cdc9_Class27 ( obj_a00bd7fb_8031_4078_9550_dcad1180f81b o )  ) ) ( type_7bc1e65d_da89_4b9c_a800_913e5566cdc9_Class9 ( obj_a00bd7fb_8031_4078_9550_dcad1180f81b o )  ) ) ( type_7bc1e65d_da89_4b9c_a800_913e5566cdc9_Class15 ( obj_a00bd7fb_8031_4078_9550_dcad1180f81b o )  ) ) ( type_7bc1e65d_da89_4b9c_a800_913e5566cdc9_Class28 ( obj_a00bd7fb_8031_4078_9550_dcad1180f81b o )  ) )):named c40))
(assert (! (exists ((o Int)) (and (and ( type_7bc1e65d_da89_4b9c_a800_913e5566cdc9_Class46 ( obj_a00bd7fb_8031_4078_9550_dcad1180f81b o )  )  ( type_7bc1e65d_da89_4b9c_a800_913e5566cdc9_Class15 ( obj_a00bd7fb_8031_4078_9550_dcad1180f81b o )  ) ) ( type_7bc1e65d_da89_4b9c_a800_913e5566cdc9_Class5 ( obj_a00bd7fb_8031_4078_9550_dcad1180f81b o )  ) )):named c41))
(assert (! (exists ((o Int)) ( type_7bc1e65d_da89_4b9c_a800_913e5566cdc9_Class47 ( obj_a00bd7fb_8031_4078_9550_dcad1180f81b o )  ) ):named c42))
(assert (! (exists ((o Int)) (and ( type_7bc1e65d_da89_4b9c_a800_913e5566cdc9_Class48 ( obj_a00bd7fb_8031_4078_9550_dcad1180f81b o )  )  ( type_7bc1e65d_da89_4b9c_a800_913e5566cdc9_Class15 ( obj_a00bd7fb_8031_4078_9550_dcad1180f81b o )  ) )):named c43))
(assert (! (exists ((o Int)) ( type_7bc1e65d_da89_4b9c_a800_913e5566cdc9_Class49 ( obj_a00bd7fb_8031_4078_9550_dcad1180f81b o )  ) ):named c44))
(assert (! (exists ((o Int)) (and ( type_7bc1e65d_da89_4b9c_a800_913e5566cdc9_Class5 ( obj_a00bd7fb_8031_4078_9550_dcad1180f81b o )  )  ( type_7bc1e65d_da89_4b9c_a800_913e5566cdc9_Class15 ( obj_a00bd7fb_8031_4078_9550_dcad1180f81b o )  ) )):named c45))
(assert (! (exists ((o Int)) ( type_7bc1e65d_da89_4b9c_a800_913e5566cdc9_Class50 ( obj_a00bd7fb_8031_4078_9550_dcad1180f81b o )  ) ):named c46))
(assert (! (exists ((o Int)) ( type_7bc1e65d_da89_4b9c_a800_913e5566cdc9_Class51 ( obj_a00bd7fb_8031_4078_9550_dcad1180f81b o )  ) ):named c47))
(assert (! (exists ((o Int)) ( type_7bc1e65d_da89_4b9c_a800_913e5566cdc9_Class52 ( obj_a00bd7fb_8031_4078_9550_dcad1180f81b o )  ) ):named c48))
(assert (! (exists ((o Int)) ( type_7bc1e65d_da89_4b9c_a800_913e5566cdc9_Class53 ( obj_a00bd7fb_8031_4078_9550_dcad1180f81b o )  ) ):named c49))
(assert (! (exists ((o Int)) (and (and (and (and (and ( type_7bc1e65d_da89_4b9c_a800_913e5566cdc9_Class54 ( obj_a00bd7fb_8031_4078_9550_dcad1180f81b o )  )  ( type_7bc1e65d_da89_4b9c_a800_913e5566cdc9_Class36 ( obj_a00bd7fb_8031_4078_9550_dcad1180f81b o )  ) ) ( type_7bc1e65d_da89_4b9c_a800_913e5566cdc9_Class35 ( obj_a00bd7fb_8031_4078_9550_dcad1180f81b o )  ) ) ( type_7bc1e65d_da89_4b9c_a800_913e5566cdc9_Class27 ( obj_a00bd7fb_8031_4078_9550_dcad1180f81b o )  ) ) ( type_7bc1e65d_da89_4b9c_a800_913e5566cdc9_Class15 ( obj_a00bd7fb_8031_4078_9550_dcad1180f81b o )  ) ) ( type_7bc1e65d_da89_4b9c_a800_913e5566cdc9_Class28 ( obj_a00bd7fb_8031_4078_9550_dcad1180f81b o )  ) )):named c50))
(assert (! (exists ((o Int)) ( type_7bc1e65d_da89_4b9c_a800_913e5566cdc9_Class55 ( obj_a00bd7fb_8031_4078_9550_dcad1180f81b o )  ) ):named c51))
(assert (! (exists ((o Int)) ( type_7bc1e65d_da89_4b9c_a800_913e5566cdc9_Class56 ( obj_a00bd7fb_8031_4078_9550_dcad1180f81b o )  ) ):named c52))
(assert (! (exists ((o Int)) (and (and (and (and ( type_7bc1e65d_da89_4b9c_a800_913e5566cdc9_Class6 ( obj_a00bd7fb_8031_4078_9550_dcad1180f81b o )  )  ( type_7bc1e65d_da89_4b9c_a800_913e5566cdc9_Class22 ( obj_a00bd7fb_8031_4078_9550_dcad1180f81b o )  ) ) ( type_7bc1e65d_da89_4b9c_a800_913e5566cdc9_Class15 ( obj_a00bd7fb_8031_4078_9550_dcad1180f81b o )  ) ) ( type_7bc1e65d_da89_4b9c_a800_913e5566cdc9_Class48 ( obj_a00bd7fb_8031_4078_9550_dcad1180f81b o )  ) ) ( type_7bc1e65d_da89_4b9c_a800_913e5566cdc9_Class43 ( obj_a00bd7fb_8031_4078_9550_dcad1180f81b o )  ) )):named c53))
(assert (! (exists ((o Int)) ( type_7bc1e65d_da89_4b9c_a800_913e5566cdc9_Class7 ( obj_a00bd7fb_8031_4078_9550_dcad1180f81b o )  ) ):named c54))
(assert (! (exists ((o Int)) ( type_7bc1e65d_da89_4b9c_a800_913e5566cdc9_Class8 ( obj_a00bd7fb_8031_4078_9550_dcad1180f81b o )  ) ):named c55))
(assert (! (exists ((o Int)) (and (and (and (and (and ( type_7bc1e65d_da89_4b9c_a800_913e5566cdc9_Class9 ( obj_a00bd7fb_8031_4078_9550_dcad1180f81b o )  )  ( type_7bc1e65d_da89_4b9c_a800_913e5566cdc9_Class36 ( obj_a00bd7fb_8031_4078_9550_dcad1180f81b o )  ) ) ( type_7bc1e65d_da89_4b9c_a800_913e5566cdc9_Class35 ( obj_a00bd7fb_8031_4078_9550_dcad1180f81b o )  ) ) ( type_7bc1e65d_da89_4b9c_a800_913e5566cdc9_Class27 ( obj_a00bd7fb_8031_4078_9550_dcad1180f81b o )  ) ) ( type_7bc1e65d_da89_4b9c_a800_913e5566cdc9_Class15 ( obj_a00bd7fb_8031_4078_9550_dcad1180f81b o )  ) ) ( type_7bc1e65d_da89_4b9c_a800_913e5566cdc9_Class28 ( obj_a00bd7fb_8031_4078_9550_dcad1180f81b o )  ) )):named c56))

 ;end of formula 